p cnf 12 59
2 8 -6 0 
-2 5 -12 0 
9 6 -8 0 
-6 8 3 0 
10 -11 7 0 
12 -11 8 0 
-1 9 11 0 
8 6 7 0 
9 12 -7 0 
-2 3 -9 0 
3 -11 5 0 
-2 -6 4 0 
-7 8 12 0 
2 -3 -7 0 
8 4 -3 0 
-3 -9 -7 0 
4 -1 -8 0 
-9 10 -8 0 
-7 6 -8 0 
12 -1 -9 0 
3 12 5 0 
3 -9 1 0 
2 6 9 0 
3 5 -8 0 
1 -5 7 0 
3 5 -7 0 
-7 -1 -4 0 
-5 -10 3 0 
-9 -8 -11 0 
-7 -11 -5 0 
-7 3 -11 0 
-1 -5 -2 0 
12 -10 -2 0 
6 11 -5 0 
5 7 2 0 
-5 10 3 0 
4 -8 5 0 
11 1 -8 0 
-10 -8 -11 0 
-6 -9 -10 0 
1 8 11 0 
10 1 11 0 
7 -12 10 0 
4 11 -6 0 
-10 -6 5 0 
12 -2 5 0 
9 -1 12 0 
6 -4 2 0 
-1 7 9 0 
11 7 5 0 
-12 6 11 0 
-4 8 -1 0 
5 -9 -11 0 
-11 -9 12 0 
1 12 -3 0 
12 1 9 0 
-2 -1 -4 0 
-2 -5 1 0 
-5 8 2 0 
